50
95 53
77 93
0 28
40 76
76 6
21 70
26 78
47 73
32 5
77 13
85 32
84 32
43 13
42 5
96 29
84 21
90 18
98 44
91 25
73 70
38 43
34 1
6 17
75 94
40 16
29 34
28 68
5 74
70 66
95 56
44 22
10 6
75 78
36 32
79 37
98 38
72 61
91 51
4 16
34 76
50 76
10 40
85 69
18 84
43 20
15 59
53 36
72 0
71 73
17 55
